PARAMETER_FILE = even/even_uncomplete_graph_new/nei/par/random71.par
PROBLEM_FILE = even/even_uncomplete_graph_new/nei/mat/random71.tsp
Successes/Runs = 0/10
Cost.min = 669, Cost.avg = 669.00, Cost.max = 669
Gap.min = 0.0000%, Gap.avg = 0.0000%, Gap.max = 0.0000%
Trials.min = 1000, Trials.avg = 1000.0, Trials.max = 1000
Time.min = 0.13 sec., Time.avg = 0.14 sec., Time.max = 0.16 sec.
Time.total = 1.49 sec.
